20	5
0	2	2	1
1	4	20	18	5	4
2	3	20	13	12
3	1	6
4	1	17
5	1	12
6	1	4
7	0
8	1	16
9	2	10	18
10	1	3
11	2	16	15
12	0
13	1	11
14	1	7
15	1	9
16	1	21
17	1	21
18	1	21
19	1	21
20	1	21
21	0
0	0	0	0	0	0	0
1	5	5	3	2	3	5
2	1	2	2	4	3	4
3	10	3	4	4	1	2
4	6	2	2	2	1	5
5	7	5	2	5	3	1
6	7	1	3	5	5	3
7	8	2	1	5	5	5
8	6	1	2	4	2	4
9	8	1	3	4	1	4
10	5	3	4	4	1	2
11	6	3	2	3	2	1
12	3	4	5	3	4	1
13	1	4	4	2	5	2
14	4	3	5	1	2	4
15	3	1	4	5	4	3
16	2	1	4	5	4	2
17	9	1	1	4	5	5
18	1	1	4	3	5	5
19	10	3	3	3	2	5
20	8	3	2	2	2	3
21	0	0	0	0	0	0
7	6	8	7	6
